
Gurobi 9.5.1 (linux64) logging started Wed Mar  9 17:58:31 2022

Set parameter LogFile to value "../results/logs/log_2022_03_09_17_57.csv_3_30.log"
Set parameter Method to value 3
Gurobi Optimizer version 9.5.1 build v9.5.1rc2 (linux64)
Thread count: 8 physical cores, 8 logical processors, using up to 8 threads
Optimize a model with 5947 rows, 9882 columns and 44842 nonzeros
Model fingerprint: 0xdc86e953
Variable types: 4941 continuous, 4941 integer (4941 binary)
Coefficient statistics:
  Matrix range     [1e+00, 3e+00]
  Objective range  [1e+00, 1e+00]
  Bounds range     [1e+00, 1e+00]
  RHS range        [1e+00, 3e+01]
Found heuristic solution: objective 231.0000000
Presolve removed 2783 rows and 5534 columns
Presolve time: 0.04s
Presolved: 3164 rows, 4348 columns, 16843 nonzeros
Variable types: 2523 continuous, 1825 integer (1795 binary)
Found heuristic solution: objective 256.0000000

Concurrent LP optimizer: primal simplex, dual simplex, and barrier
Showing barrier log only...

Root barrier log...

Ordering time: 0.00s

Barrier statistics:
 AA' NZ     : 1.450e+04
 Factor NZ  : 4.269e+04 (roughly 3 MB of memory)
 Factor Ops : 6.627e+05 (less than 1 second per iteration)
 Threads    : 1

                  Objective                Residual
Iter       Primal          Dual         Primal    Dual     Compl     Time
   0   8.41975456e+03  6.33287955e+03  6.07e+03 1.00e+00  1.26e+01     0s
   1   2.19820414e+03  9.14175757e+03  1.02e+03 3.11e-15  2.46e+00     0s
   2   1.23811907e+03  4.45866656e+03  1.49e+02 5.11e-15  4.80e-01     0s
   3   1.17496509e+03  1.74417196e+03  3.39e+01 6.44e-15  9.26e-02     0s
   4   1.13147710e+03  1.31492571e+03  6.19e+00 4.33e-15  2.40e-02     0s
   5   1.12461563e+03  1.18954564e+03  1.31e+00 4.19e-15  7.24e-03     0s
   6   1.12603499e+03  1.13719595e+03  7.23e-02 5.38e-15  1.04e-03     0s
   7   1.12689490e+03  1.12996237e+03  1.87e-02 4.47e-15  2.85e-04     0s
   8   1.12721378e+03  1.12778705e+03  4.36e-03 4.77e-15  5.42e-05     0s
   9   1.12737641e+03  1.12749668e+03  2.47e-04 5.17e-15  1.06e-05     0s
  10   1.12738513e+03  1.12740328e+03  1.13e-04 3.82e-15  1.69e-06     0s
  11   1.12739253e+03  1.12739272e+03  0.00e+00 4.80e-15  1.57e-08     0s
  12   1.12739262e+03  1.12739262e+03  7.41e-12 3.92e-15  5.78e-14     0s

Barrier solved model in 12 iterations and 0.08 seconds (0.08 work units)
Optimal objective 1.12739262e+03


Solved with barrier

Root relaxation: objective 1.127393e+03, 332 iterations, 0.05 seconds (0.04 work units)

    Nodes    |    Current Node    |     Objective Bounds      |     Work
 Expl Unexpl |  Obj  Depth IntInf | Incumbent    BestBd   Gap | It/Node Time

     0     0 1127.39262    0 1232  256.00000 1127.39262   340%     -    0s
H    0     0                     260.0000000 1126.23068   333%     -    0s
     0     0  637.04121    0  658  260.00000  637.04121   145%     -    0s
     0     0  605.27689    0  546  260.00000  605.27689   133%     -    0s
     0     0  603.24816    0  538  260.00000  603.24816   132%     -    0s
     0     0  603.12028    0  534  260.00000  603.12028   132%     -    0s
     0     0  532.14989    0  429  260.00000  532.14989   105%     -    0s
     0     0  523.39121    0  481  260.00000  523.39121   101%     -    0s
     0     0  521.63144    0  470  260.00000  521.63144   101%     -    0s
     0     0  521.49606    0  460  260.00000  521.49606   101%     -    0s
H    0     0                     264.0000000  521.49606  97.5%     -    0s
H    0     0                     267.0000000  521.49606  95.3%     -    0s
H    0     0                     272.0000000  495.87946  82.3%     -    0s
     0     0  495.87946    0  376  272.00000  495.87946  82.3%     -    0s
H    0     0                     273.0000000  495.87946  81.6%     -    0s
H    0     0                     280.0000000  487.30553  74.0%     -    0s
     0     0  487.30553    0  435  280.00000  487.30553  74.0%     -    0s
     0     0  486.02567    0  452  280.00000  486.02567  73.6%     -    0s
H    0     0                     283.0000000  485.79988  71.7%     -    0s
     0     0  485.79988    0  438  283.00000  485.79988  71.7%     -    0s
H    0     0                     298.0000000  485.79988  63.0%     -    0s
     0     0  477.19281    0  391  298.00000  477.19281  60.1%     -    0s
H    0     0                     299.0000000  477.19281  59.6%     -    0s
     0     0  474.50098    0  422  299.00000  474.50098  58.7%     -    0s
     0     0  473.44452    0  378  299.00000  473.44452  58.3%     -    0s
     0     0  473.30316    0  434  299.00000  473.30316  58.3%     -    0s
     0     0  467.61011    0  468  299.00000  467.61011  56.4%     -    1s
H    0     0                     301.0000000  466.31380  54.9%     -    1s
     0     0  466.31380    0  429  301.00000  466.31380  54.9%     -    1s
     0     0  466.08453    0  407  301.00000  466.08453  54.8%     -    1s
     0     0  463.11492    0  344  301.00000  463.11492  53.9%     -    1s
H    0     0                     302.0000000  463.11492  53.3%     -    1s
     0     0  462.53860    0  352  302.00000  462.53860  53.2%     -    1s
     0     0  460.77814    0  339  302.00000  460.77814  52.6%     -    1s
     0     0  460.77814    0  339  302.00000  460.77814  52.6%     -    1s
     0     2  460.77814    0  339  302.00000  460.77814  52.6%     -    1s
H   35    40                     310.0000000  458.74633  48.0%   105    1s
H  109   118                     311.0000000  458.74633  47.5%  62.3    1s
H  112   118                     312.0000000  458.74633  47.0%  61.8    1s
H  150   157                     314.0000000  458.74633  46.1%  61.8    2s
H  155   157                     319.0000000  458.74633  43.8%  62.3    2s
H 1246  1257                     321.0000000  458.74633  42.9%  51.8    3s
H 1270  1265                     327.0000000  458.74633  40.3%  51.4    3s
H 1271  1265                     329.0000000  458.74633  39.4%  51.4    3s
H 1276  1265                     372.0000000  458.74633  23.3%  51.5    3s
H 1986  1933                     373.0000000  458.74633  23.0%  52.8    4s
  2042  1965     cutoff  155       373.00000  458.74633  23.0%  52.3    5s
H 2061  1730                     400.0000000  458.74633  14.7%  52.5    5s
H 2092  1711                     401.0000000  458.74633  14.4%  52.5    6s
  2133  1726  437.43974   19  273  401.00000  437.43974  9.09%  51.5   10s
  2203  1772  431.86803   56  259  401.00000  431.86803  7.70%  49.9   15s
H 2222  1696                     402.0000000  431.82555  7.42%  57.0   16s
  2243  1713  431.38037   29  208  402.00000  431.38037  7.31%  60.7   21s
  2368  1814  426.18835   39   89  402.00000  429.92460  6.95%  63.2   25s
H 2370  1727                     423.0000000  429.92460  1.64%  63.3   25s
H 2524  1658                     426.0000000  429.92460  0.92%  64.0   26s
* 2651  1537              45     427.0000000  429.65163  0.62%  64.0   26s
* 2698  1409              45     428.0000000  429.31608  0.31%  63.8   26s

Cutting planes:
  Gomory: 116
  Lift-and-project: 156
  Implied bound: 21
  MIR: 782
  Flow cover: 945
  RLT: 86
  Relax-and-lift: 34

Explored 2815 nodes (180871 simplex iterations) in 26.49 seconds (30.86 work units)
Thread count was 8 (of 8 available processors)

Solution count 10: 428 427 426 ... 329

Optimal solution found (tolerance 1.00e-04)
Best objective 4.280000000000e+02, best bound 4.280000000000e+02, gap 0.0000%
